76436176177255779485012,9,1,2,06,8,1,2,011,2,1,2,02,6,1,2,02,12,1,2,09,4,1,2,012,6,1,2,015,6,1,2,04,8,1,2,04,5,1,2,014,7,1,2,04,2,1,2,012,8,1,2,09,8,1,2,014,8,1,2,014,1,1,2,09,10,1,2,04,13,1,2,07,1,1,2,08,13,1,2,06,12,1,2,01,2,1,2,011,14,1,2,03,10,1,2,010,9,1,2,010,5,1,2,08,1,1,2,013,3,1,2,01,1,1,2,011,11,1,2,015,8,1,2,01,3,1,2,05,4,1,2,07,14,1,2,015,10,1,2,012,3,1,2,011,2,1,2,015,12,1,2,014,4,1,2,012,7,1,2,03,10,1,2,06,14,1,2,06,1,1,2,015,11,1,2,04,13,1,2,03,9,1,2,012,3,1,2,04,5,1,2,08,1,1,2,015,5,1,2,0